(declare-fun o (Int) Int)
(declare-fun i (Int Int Int) Int)
(declare-fun k () Int)
(declare-fun m (Int Int) Int)
(assert (> k 0))
(assert (and (= 1 (o 0)) (= 2 (o 1)) (= 4 (o 2)) (= 8 (o 3))))
(declare-fun C () Int)
(assert (and (>= C 0) (<= C (- (o k) 1))))
(declare-fun % () Int)
(assert (and (>= % 0) (<= % (- (o k) 1))))
(assert (distinct (i 0 (o k) (ite (= 0 (o k)) (+ C (ite (= 0 (o k)) (- (o k) %) (mod (- (o k) %) (o k)))) (mod (+ C (ite (= 0 (o k)) (- (o k) %) (mod (- (o k) %) (o k)))) (o k)))) (ite (= 0 (o k)) (+ % (ite (= 0 (o k)) (+ (- (o k) 1) (ite (= 0 (o k)) (- (o k) C) (mod (- (o k) C) (o k)))) (mod (+ (- (o k) 1) (ite (= 0 (o k)) (- (o k) C) (mod (- (o k) C) (o k)))) (o k)))) (mod (+ % (ite (= 0 (o k)) (+ (- (o k) 1) (ite (= 0 (o k)) (- (o k) C) (mod (- (o k) C) (o k)))) (mod (+ (- (o k) 1) (ite (= 0 (o k)) (- (o (* % (m 0 (n 0 0 (o C))))) C) (mod (- (o k) C) (o k)))) (o k)))) (o k)))))
(check-sat)
